p cnf 26 27
-1 4 24 0 
-1 4 25 0 
-2 6 22 24 0 
-2 6 22 25 0 
-3 21 -4 1 -5 11 19 26 0 
-6 2 22 24 0 
-7 9 17 25 0 
-6 2 22 25 0 
-8 -9 7 17 -10 12 13 14 20 26 0 
-11 5 19 26 0 
-7 9 17 24 0 
-12 10 13 14 20 24 0 
-13 10 12 14 20 25 0 
-14 10 12 13 20 -15 -4 1 -16 -17 7 9 26 0 
-15 -1 4 25 0 
-9 7 17 24 0 
-7 9 17 25 0 
-2 6 22 -18 -8 -19 5 11 24 0 
-9 7 17 25 0 
-20 10 12 13 14 25 0 
-20 10 12 13 14 -2 6 22 25 0 
-21 3 25 0 
-22 2 6 24 0 
-20 10 12 13 14 24 0 
-7 9 17 24 0 
-23 24 0 
-23 25 0 
